55332
46, 22, 29, 10, 34, 53, 21, 23, 17, 48, 49, 19, 32, 41, 44, 8, 38, 50, 20, 24, 35, 5, 37, 7, 40, 51, 13, 43, 3, 6, 28, 26, 55, 54, 47, 30, 4, 18, 12, 9, 14, 2, 45, 11, 42, 33, 27, 1, 31, 25, 15, 52, 16, 39, 36
